c order = 17
c --- [ banner ] -------------------------------------------------------------
c 
c CaDiCaL SAT Solver
c Copyright (c) 2016-2023 A. Biere, M. Fleury, N. Froleyks, K. Fazekas, F. Pollitt
c 
c Version 1.9.4 2baa75739c701d5fd29da38829a8a72eedcd8dae
c g++ (SUSE Linux) 7.5.0 -Wall -Wextra -O3 -DNDEBUG
c Thu May 8 01:01:20 AM EDT 2025 Linux login10 6.4.0-150600.23.17_14.0.63-cray_shasta_c x86_64
c 
c --- [ limit ] --------------------------------------------------------------
c 
c setting time limit to 3600 seconds real time (due to '-t 3600')
c setting proofsize limit to 7168 MiB (due to '7168')
c 
c --- [ parsing input ] ------------------------------------------------------
c 
c reading DIMACS file from './instances/ks_17.cnf'
c opening file to read './instances/ks_17.cnf'
c found 'p cnf 2720 107610' header
c parsed 107610 clauses in 0.65 seconds process time
c 
c --- [ options ] ------------------------------------------------------------
c 
c all options are set to their default value
c 
c --- [ solving ] ------------------------------------------------------------
c 
c Not checking for unembeddable subgraphs
c Running orderly generation on order 17 (136 edge variables)
c time measured in process time since initialization
c 
c  seconds  reductions  redundant  irredundant
c         MB    restarts       trail      variables
c          level   conflicts       glue        remaining
c 
c *  0.65 59  0 0   0    0    0  0% 0 107610 2720 100%
c {  0.65 60  0 0   0    0    0  0% 0 107610 2720 100%
c -  0.86 74 97 1  17  300  271 38% 11 107648 2720 100%
c -  1.41 127 67 2  78  927  727 44% 16 107681 2720 100%
c }  1.45 127 64 2  78 1000  784 44% 16 107681 2720 100%
c [  1.45 127  0 2  78 1000  784  0% 0 107681 2720 100%
c O  1.45 127 99 2  78 1003  787 23% 2 107681 2720 100%
c i  1.48 127 18 2  78 1022  798 22% 2 107681 2704 99%
c -  2.03 127 19 3  78 1856 1156 47% 13 107415 2704 99%
c ]  2.47 127 18 3  79 3001 1900 49% 13 107479 2704 99%
c {  2.47 127 64 3  79 3001 1900 44% 16 107479 2704 99%
c F  2.48 127 63 3  79 3011 1901 44% 16 107479 2704 99%
c -  2.64 126 61 4  86 3095 1558 45% 16 107502 2704 99%
c i  3.74 126 43 4 194 4588 2713 46% 16 107584 2411 89%
c i  3.85 99 43 4 194 4597 2365 17% 16 71074 2398 88%
c -  3.97 99 43 5 194 4642 1792 37% 16 70829 2398 88%
c i  4.00 99 43 5 194 4671 1820 41% 16 70829 2397 88%
c d  4.33 99 44 5 263 5000 2111 42% 17 70841 2392 88%
c p  4.66 99 44 5 263 5000 8874 42% 17 70841 2177 80%
c d  4.75 99 44 5 263 5000 7595 42% 17 68644 2169 80%
c 
c  seconds  reductions  redundant   irredundant
c         MB    restarts       trail      variables
c          level   conflicts       glue        remaining
c 
c d  4.76 99 44 5 263 5000 7592 42% 17 68642 2167 80%
c #  5.32 99 41 5 356 6012 8469 45% 18 68697 2167 80%
c -  5.60 94 39 6 369 6443 2806 45% 17 68705 2167 80%
c }  5.76 94 37 6 370 7001 3206 45% 17 68712 2167 80%
c [  5.76 94 18 6 370 7001 3206 55% 13 68712 2167 80%
c -  6.18 112 23 7 371 8546 3180 52% 17 68735 2167 80%
c I  6.57 132 23 7 372 10013 4179 19% 18 68738 2167 80%
c s  6.77 132 24 7 373 10613 4498 40% 19 67531 2167 80%
c v  7.09 132 24 7 373 10613 4498 40% 19 67513 2167 80%
c w  7.10 132 24 7 373 10613 4495 40% 19 67513 2167 80%
c t  7.10 132 24 7 373 10613 4435 40% 19 67490 2167 80%
c e  7.16 133 24 7 373 10613 4224 40% 19 65775 1124 41%
c s  7.19 133 24 7 373 10613 4223 40% 19 65546 1124 41%
c -  7.38 133 23 8 373 10946 3390 36% 18 65546 1124 41%
c -  7.97 133 22 9 375 13647 3715 30% 18 65559 1124 41%
c 2  8.27 133 22 9 375 15000 5340 29% 17 65563 1124 41%
c p  8.47 133 22 9 375 15000 8286 29% 17 65563 1123 41%
c ]  8.48 133 22 9 375 15001 8287 29% 17 65563 1123 41%
c {  8.48 133 37 9 375 15001 8287 50% 17 65563 1123 41%
c B  8.51 133 37 9 375 15015 8297 50% 17 65563 1123 41%
c 
c  seconds   reductions    redundant   irredundant
c          MB     restarts        trail      variables
c           level     conflicts       glue        remaining
c 
c -  8.91 133 32 10 418 16648 4313 54% 16 65610 1123 41%
c -  9.67 133 27 11 462 19951 4834 55% 15 65679 1123 41%
c W 10.09 133 26 11 475 21017 5607 54% 15 65696 1123 41%
c - 10.69 133 25 12 545 23551 5527 54% 15 65743 1123 41%
c - 11.60 133 23 13 642 27451 5707 54% 14 65794 1123 41%
c F 11.74 133 22 13 642 28018 6024 54% 14 65798 1123 41%
c p 12.77 133 22 13 741 30001 12231 54% 14 65823 1121 41%
c } 13.06 133 22 13 755 31002 12900 54% 14 65827 1121 41%
c [ 13.06 133 22 13 755 31002 12900 57% 17 65827 1121 41%
c - 13.22 133 22 14 755 31653 6523 57% 17 65831 1121 41%
c s 13.69 133 22 14 756 34077 7940 57% 18 65328 1121 41%
c v 14.15 133 22 14 756 34077 7940 57% 18 65307 1121 41%
c w 14.17 133 22 14 756 34077 7939 57% 18 65307 1121 41%
c t 14.18 133 22 14 756 34077 7938 57% 18 65307 1121 41%
c e 14.23 133 22 14 756 34077 7938 57% 18 65292 1109 41%
c s 14.30 133 22 14 756 34077 7937 57% 18 64958 1109 41%
c B 14.79 133 22 14 758 36019 9044 57% 18 64962 1109 41%
c - 14.84 133 22 15 758 36153 6665 57% 18 64968 1109 41%
c New solution was found: 15 20 21 25 28 31 35 36 39 40 42 47 51 55 57 59 63 68 69 71 78 79 83 91 92 95 101 105 106 108 114 121 122 131 136 
c i 15.65 133 20 15 760 38868 8297 56% 17 65059 1062 39%
c - 16.37 133 21 16 761 40953 5163 56% 17 63873 1062 39%
c 
c  seconds   reductions    redundant   irredundant
c          MB     restarts        trail      variables
c           level     conflicts       glue        remaining
c 
c W 17.65 133 22 16 762 45020 7841 55% 18 63884 1062 39%
c - 18.07 133 22 17 763 46055 6595 55% 18 63891 1062 39%
c 2 19.04 133 21 17 763 50001 9872 55% 18 63893 1062 39%
c p 20.05 133 21 17 763 50001 12759 55% 18 63893 1056 39%
c d 20.10 133 21 17 763 50001 12525 55% 18 63873 1054 39%
c - 20.50 133 21 18 763 51457 7146 55% 18 63880 1054 39%
c O 21.21 133 21 18 764 55021 9177 55% 17 63895 1054 39%
c - 21.52 133 21 19 766 57158 7808 55% 17 63900 1054 39%
c ] 22.69 133 21 19 770 63003 11544 55% 17 63911 1054 39%
c { 22.69 133 22 19 770 63003 11544 54% 14 63911 1054 39%
c - 22.79 133 22 20 797 63159 8262 54% 14 63912 1054 39%
c B 23.38 133 21 20 909 66024 10092 54% 14 63924 1054 39%
c s 24.13 133 20 20 980 69312 11981 54% 14 62629 1054 39%
c v 24.52 133 20 20 980 69312 11981 54% 14 62601 1054 39%
c w 24.55 133 20 20 980 69312 11970 54% 14 62601 1054 39%
c t 24.55 133 20 20 980 69312 11968 54% 14 62601 1054 39%
c e 24.60 133 20 20 980 69312 11887 54% 14 62535 988 36%
c s 24.71 133 20 20 980 69312 11887 54% 14 61908 988 36%
c - 24.88 133 20 21 1008 69461 8402 52% 14 61908 988 36%
c p 26.41 133 20 21 1296 75001 16778 52% 14 61934 974 36%
c 
c  seconds   reductions     redundant   irredundant
c          MB     restarts         trail      variables
c           level      conflicts       glue       remaining
c 
c - 26.70 133 19 22 1301 76061 8947 52% 14 51916 974 36%
c W 27.17 133 19 22 1397 78025 10189 52% 14 51926 974 36%
c - 27.95 133 19 23 1583 82961 9662 52% 13 51951 974 36%
c - 29.44 133 18 24 1810 90161 10075 52% 13 51976 974 36%
c # 29.57 133 18 24 1813 91027 10511 52% 13 51976 974 36%
c - 31.16 133 17 25 2048 97664 11036 52% 13 52003 974 36%
c d 32.47 133 17 25 2204 105005 14580 52% 13 52022 973 36%
c 3 32.48 133 17 25 2204 105005 15625 52% 13 52022 973 36%
c 2 32.48 133 17 25 2204 105005 15665 52% 13 52021 973 36%
c p 32.69 133 17 25 2204 105005 20109 52% 13 52021 966 36%
c d 32.73 133 17 25 2204 105005 19407 52% 13 51999 965 35%
c B 32.76 133 17 25 2204 105028 19428 52% 13 51999 965 35%
c - 32.92 133 17 26 2235 105465 11057 52% 13 52000 965 35%
c i 33.69 133 16 26 2338 110502 13272 52% 12 52018 963 35%
c i 34.05 133 16 26 2356 112388 14034 52% 12 52035 952 35%
c - 34.32 133 16 27 2415 113565 7412 52% 12 42631 952 35%
c s 35.06 133 16 27 2494 117068 8982 52% 12 41664 952 35%
c v 35.27 133 16 27 2494 117068 8982 52% 12 41564 952 35%
c w 35.28 133 16 27 2494 117068 8971 52% 12 41564 952 35%
c t 35.28 133 16 27 2494 117068 8950 52% 12 41562 952 35%
c 
c  seconds   reductions      redundant   irredundant
c          MB     restarts          trail      variables
c           level      conflicts        glue       remaining
c 
c e 35.31 133 16 27 2494 117068 8892 52% 12 41060 769 28%
c s 35.45 133 16 27 2494 117068 8892 52% 12 40489 769 28%
c W 36.07 87 15 27 2527 120034 10476 58% 12 40501 769 28%
c - 36.28 96 15 28 2532 121966 9417 59% 12 40504 769 28%
c i 36.33 96 15 28 2543 122570 9732 59% 12 40504 759 28%
c } 36.66 96 15 28 2796 127007 11981 57% 12 40504 759 28%
c [ 36.66 96 21 28 2796 127007 11981 80% 17 40504 759 28%
c - 36.97 96 21 29 2797 130668 9530 77% 17 40314 759 28%
c i 37.25 96 20 29 2799 133644 10998 76% 17 40314 756 28%
c i 37.28 96 20 29 2799 133877 11153 76% 17 40315 733 27%
c i 37.37 96 20 29 2799 134600 11576 75% 17 40317 730 27%
c ] 37.37 96 20 29 2799 134610 11579 75% 17 40317 651 24%
c 0 37.37 96 20 29 2799 134610 11579 75% 17 40317 651 24%
Number of solutions   : 1
Canonical subgraphs   : 2017           (1139 /sec)
          order  3    : 1              (500000 /sec)
          order  4    : 1              (inf /sec)
          order  5    : 2              (133333 /sec)
          order  6    : 6              (56075 /sec)
          order  7    : 15             (56180 /sec)
          order  8    : 43             (25841 /sec)
          order  9    : 95             (11692 /sec)
          order 10    : 233            (4971 /sec)
          order 11    : 561            (2198 /sec)
          order 12    : 732            (1000 /sec)
          order 13    : 297            (476 /sec)
          order 14    : 27             (343 /sec)
          order 15    : 2              (1008 /sec)
          order 16    : 1              (1034 /sec)
          order 17    : 1              (50 /sec)
Noncanonical subgraphs: 1204           (6860 /sec)
          order  3    : 0              (-nan /sec)
          order  4    : 0              (-nan /sec)
          order  5    : 0              (-nan /sec)
          order  6    : 0              (-nan /sec)
          order  7    : 3              (300000 /sec)
          order  8    : 16             (213333 /sec)
          order  9    : 48             (105263 /sec)
          order 10    : 116            (50151 /sec)
          order 11    : 289            (22900 /sec)
          order 12    : 426            (8732 /sec)
          order 13    : 249            (3443 /sec)
          order 14    : 54             (1556 /sec)
          order 15    : 2              (606 /sec)
          order 16    : 1              (1079 /sec)
          order 17    : 0              (-nan /sec)
Canonicity checking   : 1.77065 s
Noncanonicity checking: 0.175517 s
Total canonicity time : 1.94617 s
c 
c --- [ result ] -------------------------------------------------------------
c 
s UNSATISFIABLE
c 
c --- [ run-time profiling ] -------------------------------------------------
c 
c process time taken by individual solving procedures
c (percentage relative to process time for solving)
c 
c        32.39   88.32% search
c        20.13   54.89% unstable
c        11.80   32.17% stable
c         4.28   11.68% simplify
c         1.48    4.02% vivify
c         1.35    3.67% probe
c         0.70    1.92% subsume
c         0.70    1.91% parse
c         0.46    1.25% walk
c         0.40    1.08% elim
c         0.06    0.15% ternary
c   =================================
c        36.67   98.12% solve
c 
c last line shows process time for solving
c (percentage relative to total process time)
c 
c --- [ statistics ] ---------------------------------------------------------
c 
c chronological:             24337        18.08 %  of conflicts
c conflicts:                134610      3670.77    per second
c decisions:                229051      6246.14    per second
c eliminated:                 1304        47.94 %  of all variables
c ext.prop. calls:          233114        33.53 %  of queries
c ext.clause calls:         233115        33.53 %  of queries
c ext.final check:               1         0.00 %  of queries
c fixed:                       746        27.43 %  of all variables
c learned:                  132179        98.19 %  per conflict
c learned_lits:           17240378       100.00 %  learned literals
c minimized:                     0         0.00 %  learned literals
c shrunken:               10895187        63.20 %  learned literals
c minishrunken:            1453931         8.43 %  learned literals
c otfs:                        468         0.35 %  of conflict
c propagations:           11882424         0.32 M  per second
c reduced:                   57787        42.93 %  per conflict
c rephased:                     15      8974.00    interval
c restarts:                   2799        48.09    interval
c stabilizing:                   4        36.85 %  of conflicts
c substituted:                  19         0.70 %  of all variables
c subsumed:                  58669        21.04 %  of all clauses
c strengthened:              13639         4.89 %  of all clauses
c ternary:                    6169         0.87 %  of resolved
c trail reuses:                  0         0.00 %  of incremental calls
c vivified:                    306         0.11 %  of all clauses
c walked:                        4     33652.50    interval
c weakened:                   3540         3.26    average size
c 
c seconds are measured in process time for solving
c 
c --- [ resources ] ----------------------------------------------------------
c 
c total process time since initialization:        37.37    seconds
c total real time since initialization:           43.25    seconds
c maximum resident set size of process:          176.00    MB
c 
c --- [ shutting down ] ------------------------------------------------------
c 
c exit 20
20

